100
1000
300
300
298
295
292
290
289
287
287
286
286
286
284
283
278
273
271
269
269
269
268
268
267
262
258
256
256
255
255
255
254
252
251
249
248
246
245
244
242
238
237
237
236
227
227
226
224
224
223
222
214
212
208
206
206
205
202
202
202
200
200
199
197
195
195
192
192
189
185
179
178
178
171
171
167
165
162
161
158
152
149
146
143
143
139
136
136
131
127
126
126
124
121
118
114
113
106
105
102
102
